<number of tasks>
20

<cycle time>
1000

<order strength>
0,5


<task times>
1 120
2 150
3 77
4 126
5 164
6 198
7 93
8 151
9 52
10 139
11 135
12 81
13 189
14 164
15 141
16 182
17 138
18 107
19 124
20 216

<precedence relations>
1,16
2,8
2,11
3,6
3,7
4,10
5,12
5,13
5,15
6,12
7,11
8,9
8,10
9,18
10,12
10,13
10,14
11,14
13,16
14,15
14,16
15,17
15,18
16,19
16,20

<end>
